c DCNF-Autarky [version 0.0.1]. 
c Copyright (c) 2018-2019 Swansea University. 
c 
c Input QBF/DQBF path: Castellini18//toilet_c_10_01.7.qdimacs
c Output SAT Translation Path: /tmp/toilet_c_10_01.7.qdimacs-dcnfAutarky.dimacs
c Input Clause Count (tautology free): 1070
c
c Performing E1-Autarky iteration.
c Remaining clauses count after E-Reduction: 1015
c
c Performing A1-Autarky iteration.
c Running Lingeling ... 
c
c Remaining clauses count after A-Reduction: 1015
c
c Input Parameter (command line, file): 
c input filename   Castellini18//toilet_c_10_01.7.qdimacs
c output filename  /tmp/toilet_c_10_01.7.qdimacs-dcnfAutarky.dimacs
c autarky level    1
c conformity level 0
c encoding type    2
c no.of var        228
c no.of clauses    1070
c no.of taut cls   0
c 
c Output Parameters: 
c remaining no.of clauses  1015
c
c filename pn pc autarky ntaut rpa rpe rpcdiff result
c "Castellini18//toilet_c_10_01.7.qdimacs" 228 1070 "E1+A1" 0 4 213 55 "RED" 
p cnf 228 1015
e 117 118 119 120 121 122 123 124 125 126 127 128 129 130 131 132 133 134 135 136 137 138 139 140 141 142 143 144 145 146 147 148 149 150 151 152 153 154 155 156 157 158 159 160 161 162 163 164 165 166 167 168 169 170 171 172 173 174 175 176 177 178 179 180 181 182 183 184 185 186 187 188 189 190 191 192 193 0
a 206 205 204 207 0
e 1 2 3 4 5 6 7 8 9 10 11 12 13 14 15 16 17 18 19 20 21 22 23 24 25 26 27 28 29 30 31 32 33 34 35 36 37 38 39 40 41 42 43 44 45 46 47 48 49 50 51 52 53 54 55 56 57 58 59 60 61 62 63 64 65 66 67 68 69 70 71 72 73 74 75 76 77 78 79 80 81 82 83 84 85 86 87 88 89 90 91 92 93 94 95 96 97 98 99 100 101 102 103 104 105 106 107 108 109 110 111 112 113 114 115 116 194 195 196 197 198 199 200 201 202 203 208 209 210 211 212 213 214 215 216 217 218 219 220 221 222 223 224 225 226 227 228 0
-206 -208 204 205 207 0
-206 -209 204 205 207 0
-206 -210 204 205 207 0
-206 -211 204 205 207 0
-206 -212 204 205 207 0
-206 -213 204 205 207 0
-206 -214 204 205 207 0
-206 204 205 207 215 0
-206 -216 204 205 207 0
-206 -217 204 205 207 0
-204 -205 -207 -208 206 0
-204 -205 -207 -209 206 0
-204 -205 -207 -210 206 0
-204 -205 -207 -211 206 0
-204 -205 -207 -212 206 0
-204 -205 -207 -213 206 0
-204 -205 -207 206 214 0
-204 -205 -207 -215 206 0
-204 -205 -207 -216 206 0
-204 -205 -207 -217 206 0
-204 -205 -208 206 207 0
-204 -205 -209 206 207 0
-204 -205 -210 206 207 0
-204 -205 -211 206 207 0
-204 -205 -212 206 207 0
-204 -205 206 207 213 0
-204 -205 -214 206 207 0
-204 -205 -215 206 207 0
-204 -205 -216 206 207 0
-204 -205 -217 206 207 0
-205 -207 -208 204 206 0
-205 -207 -209 204 206 0
-205 -207 -210 204 206 0
-205 -207 -211 204 206 0
-205 -207 204 206 212 0
-205 -207 -213 204 206 0
-205 -207 -214 204 206 0
-205 -207 -215 204 206 0
-205 -207 -216 204 206 0
-205 -207 -217 204 206 0
-205 -208 204 206 207 0
-205 -209 204 206 207 0
-205 -210 204 206 207 0
-205 204 206 207 211 0
-205 -212 204 206 207 0
-205 -213 204 206 207 0
-205 -214 204 206 207 0
-205 -215 204 206 207 0
-205 -216 204 206 207 0
-205 -217 204 206 207 0
-204 -207 -208 205 206 0
-204 -207 -209 205 206 0
-204 -207 205 206 210 0
-204 -207 -211 205 206 0
-204 -207 -212 205 206 0
-204 -207 -213 205 206 0
-204 -207 -214 205 206 0
-204 -207 -215 205 206 0
-204 -207 -216 205 206 0
-204 -207 -217 205 206 0
-204 -208 205 206 207 0
-204 205 206 207 209 0
-204 -210 205 206 207 0
-204 -211 205 206 207 0
-204 -212 205 206 207 0
-204 -213 205 206 207 0
-204 -214 205 206 207 0
-204 -215 205 206 207 0
-204 -216 205 206 207 0
-204 -217 205 206 207 0
-207 204 205 206 208 0
-207 -209 204 205 206 0
-207 -210 204 205 206 0
-207 -211 204 205 206 0
-207 -212 204 205 206 0
-207 -213 204 205 206 0
-207 -214 204 205 206 0
-207 -215 204 205 206 0
-207 -216 204 205 206 0
-207 -217 204 205 206 0
-208 204 205 206 207 0
-209 204 205 206 207 0
-210 204 205 206 207 0
-211 204 205 206 207 0
-212 204 205 206 207 0
-213 204 205 206 207 0
-214 204 205 206 207 0
-215 204 205 206 207 0
-216 204 205 206 207 0
204 205 206 207 217 0
-206 -207 -208 204 205 0
-206 -207 -209 204 205 0
-206 -207 -210 204 205 0
-206 -207 -211 204 205 0
-206 -207 -212 204 205 0
-206 -207 -213 204 205 0
-206 -207 -214 204 205 0
-206 -207 -215 204 205 0
-206 -207 204 205 216 0
-206 -207 -217 204 205 0
-218 0
-219 0
-220 0
-221 0
-222 0
-223 0
-224 0
-225 0
-226 0
-227 0
-228 0
-117 -228 0
-117 -218 0
-7 -118 0
-1 -118 0
-8 -119 0
-2 -119 0
-9 -120 0
-3 -120 0
-10 -121 0
-4 -121 0
-11 -122 0
-5 -122 0
-124 -219 0
-124 -228 0
-18 -125 0
-7 -125 0
-19 -126 0
-8 -126 0
-20 -127 0
-9 -127 0
-21 -128 0
-10 -128 0
-22 -129 0
-11 -129 0
-131 -220 0
-131 -228 0
-29 -132 0
-7 -132 0
-30 -133 0
-8 -133 0
-31 -134 0
-9 -134 0
-32 -135 0
-10 -135 0
-33 -136 0
-11 -136 0
-138 -221 0
-138 -228 0
-40 -139 0
-7 -139 0
-41 -140 0
-8 -140 0
-42 -141 0
-9 -141 0
-43 -142 0
-10 -142 0
-44 -143 0
-11 -143 0
-145 -222 0
-145 -228 0
-51 -146 0
-7 -146 0
-52 -147 0
-8 -147 0
-53 -148 0
-9 -148 0
-54 -149 0
-10 -149 0
-55 -150 0
-11 -150 0
-152 -223 0
-152 -228 0
-62 -153 0
-7 -153 0
-63 -154 0
-8 -154 0
-64 -155 0
-9 -155 0
-65 -156 0
-10 -156 0
-66 -157 0
-11 -157 0
-159 -224 0
-159 -228 0
-73 -160 0
-7 -160 0
-74 -161 0
-8 -161 0
-75 -162 0
-9 -162 0
-76 -163 0
-10 -163 0
-77 -164 0
-11 -164 0
-166 -225 0
-166 -228 0
-84 -167 0
-7 -167 0
-85 -168 0
-8 -168 0
-86 -169 0
-9 -169 0
-87 -170 0
-10 -170 0
-88 -171 0
-11 -171 0
-173 -226 0
-173 -228 0
-95 -174 0
-7 -174 0
-96 -175 0
-8 -175 0
-97 -176 0
-9 -176 0
-98 -177 0
-10 -177 0
-99 -178 0
-11 -178 0
-180 -227 0
-180 -228 0
-106 -182 0
-7 -182 0
-107 -184 0
-8 -184 0
-108 -186 0
-9 -186 0
-109 -188 0
-10 -188 0
-110 -190 0
-11 -190 0
-181 228 0
-183 7 0
-185 8 0
-187 9 0
-189 10 0
-191 11 0
-117 7 0
-13 -117 0
-117 1 0
-118 8 0
-14 -118 0
-118 2 0
-119 9 0
-15 -119 0
-119 3 0
-120 10 0
-16 -120 0
-120 4 0
-121 11 0
-17 -121 0
-121 5 0
-122 12 0
-122 -194 0
-122 6 0
-124 18 0
-24 -124 0
-124 7 0
-125 19 0
-25 -125 0
-125 8 0
-126 20 0
-26 -126 0
-126 9 0
-127 21 0
-27 -127 0
-127 10 0
-128 22 0
-28 -128 0
-128 11 0
-129 23 0
-129 -195 0
-129 12 0
-131 29 0
-35 -131 0
-131 7 0
-132 30 0
-36 -132 0
-132 8 0
-133 31 0
-37 -133 0
-133 9 0
-134 32 0
-38 -134 0
-134 10 0
-135 33 0
-39 -135 0
-135 11 0
-136 34 0
-136 -196 0
-136 12 0
-138 40 0
-46 -138 0
-138 7 0
-139 41 0
-47 -139 0
-139 8 0
-140 42 0
-48 -140 0
-140 9 0
-141 43 0
-49 -141 0
-141 10 0
-142 44 0
-50 -142 0
-142 11 0
-143 45 0
-143 -197 0
-143 12 0
-145 51 0
-57 -145 0
-145 7 0
-146 52 0
-58 -146 0
-146 8 0
-147 53 0
-59 -147 0
-147 9 0
-148 54 0
-60 -148 0
-148 10 0
-149 55 0
-61 -149 0
-149 11 0
-150 56 0
-150 -198 0
-150 12 0
-152 62 0
-68 -152 0
-152 7 0
-153 63 0
-69 -153 0
-153 8 0
-154 64 0
-70 -154 0
-154 9 0
-155 65 0
-71 -155 0
-155 10 0
-156 66 0
-72 -156 0
-156 11 0
-157 67 0
-157 -199 0
-157 12 0
-159 73 0
-79 -159 0
-159 7 0
-160 74 0
-80 -160 0
-160 8 0
-161 75 0
-81 -161 0
-161 9 0
-162 76 0
-82 -162 0
-162 10 0
-163 77 0
-83 -163 0
-163 11 0
-164 78 0
-164 -200 0
-164 12 0
-166 84 0
-90 -166 0
-166 7 0
-167 85 0
-91 -167 0
-167 8 0
-168 86 0
-92 -168 0
-168 9 0
-169 87 0
-93 -169 0
-169 10 0
-170 88 0
-94 -170 0
-170 11 0
-171 89 0
-171 -201 0
-171 12 0
-173 95 0
-101 -173 0
-173 7 0
-174 96 0
-102 -174 0
-174 8 0
-175 97 0
-103 -175 0
-175 9 0
-176 98 0
-104 -176 0
-176 10 0
-177 99 0
-105 -177 0
-177 11 0
-178 100 0
-178 -202 0
-178 12 0
-180 106 0
-112 -180 0
-180 7 0
-182 107 0
-113 -182 0
-182 8 0
-184 108 0
-114 -184 0
-184 9 0
-186 109 0
-115 -186 0
-186 10 0
-188 110 0
-116 -188 0
-188 11 0
-190 111 0
-190 -203 0
-190 12 0
-7 -181 0
-8 -183 0
-9 -185 0
-10 -187 0
-11 -189 0
-12 -191 0
-1 117 218 0
-2 1 118 0
-3 2 119 0
-4 3 120 0
-5 4 121 0
-6 5 122 0
-218 1 0
-1 2 0
-2 3 0
-3 4 0
-4 5 0
-5 6 0
-7 117 124 131 138 145 152 159 166 173 180 228 0
-8 7 118 125 132 139 146 153 160 167 174 182 0
-9 8 119 126 133 140 147 154 161 168 175 184 0
-10 9 120 127 134 141 148 155 162 169 176 186 0
-11 10 121 128 135 142 149 156 163 170 177 188 0
-12 11 122 129 136 143 150 157 164 171 178 190 0
-228 7 181 0
-7 8 183 0
-8 9 185 0
-9 10 187 0
-10 11 189 0
-11 12 191 0
-13 217 0
-14 13 0
-15 14 0
-16 15 0
-17 16 0
-194 17 0
-217 13 117 0
-13 14 118 0
-14 15 119 0
-15 16 120 0
-16 17 121 0
-17 122 194 0
-18 124 219 0
-19 18 125 0
-20 19 126 0
-21 20 127 0
-22 21 128 0
-23 22 129 0
-219 18 0
-18 19 0
-19 20 0
-20 21 0
-21 22 0
-22 23 0
-24 208 0
-25 24 0
-26 25 0
-27 26 0
-28 27 0
-195 28 0
-208 24 124 0
-24 25 125 0
-25 26 126 0
-26 27 127 0
-27 28 128 0
-28 129 195 0
-29 131 220 0
-30 29 132 0
-31 30 133 0
-32 31 134 0
-33 32 135 0
-34 33 136 0
-220 29 0
-29 30 0
-30 31 0
-31 32 0
-32 33 0
-33 34 0
-35 209 0
-36 35 0
-37 36 0
-38 37 0
-39 38 0
-196 39 0
-209 35 131 0
-35 36 132 0
-36 37 133 0
-37 38 134 0
-38 39 135 0
-39 136 196 0
-40 138 221 0
-41 40 139 0
-42 41 140 0
-43 42 141 0
-44 43 142 0
-45 44 143 0
-221 40 0
-40 41 0
-41 42 0
-42 43 0
-43 44 0
-44 45 0
-46 210 0
-47 46 0
-48 47 0
-49 48 0
-50 49 0
-197 50 0
-210 46 138 0
-46 47 139 0
-47 48 140 0
-48 49 141 0
-49 50 142 0
-50 143 197 0
-51 145 222 0
-52 51 146 0
-53 52 147 0
-54 53 148 0
-55 54 149 0
-56 55 150 0
-222 51 0
-51 52 0
-52 53 0
-53 54 0
-54 55 0
-55 56 0
-57 211 0
-58 57 0
-59 58 0
-60 59 0
-61 60 0
-198 61 0
-211 57 145 0
-57 58 146 0
-58 59 147 0
-59 60 148 0
-60 61 149 0
-61 150 198 0
-62 152 223 0
-63 62 153 0
-64 63 154 0
-65 64 155 0
-66 65 156 0
-67 66 157 0
-223 62 0
-62 63 0
-63 64 0
-64 65 0
-65 66 0
-66 67 0
-68 212 0
-69 68 0
-70 69 0
-71 70 0
-72 71 0
-199 72 0
-212 68 152 0
-68 69 153 0
-69 70 154 0
-70 71 155 0
-71 72 156 0
-72 157 199 0
-73 159 224 0
-74 73 160 0
-75 74 161 0
-76 75 162 0
-77 76 163 0
-78 77 164 0
-224 73 0
-73 74 0
-74 75 0
-75 76 0
-76 77 0
-77 78 0
-79 213 0
-80 79 0
-81 80 0
-82 81 0
-83 82 0
-200 83 0
-213 79 159 0
-79 80 160 0
-80 81 161 0
-81 82 162 0
-82 83 163 0
-83 164 200 0
-84 166 225 0
-85 84 167 0
-86 85 168 0
-87 86 169 0
-88 87 170 0
-89 88 171 0
-225 84 0
-84 85 0
-85 86 0
-86 87 0
-87 88 0
-88 89 0
-90 214 0
-91 90 0
-92 91 0
-93 92 0
-94 93 0
-201 94 0
-214 90 166 0
-90 91 167 0
-91 92 168 0
-92 93 169 0
-93 94 170 0
-94 171 201 0
-95 173 226 0
-96 95 174 0
-97 96 175 0
-98 97 176 0
-99 98 177 0
-100 99 178 0
-226 95 0
-95 96 0
-96 97 0
-97 98 0
-98 99 0
-99 100 0
-101 215 0
-102 101 0
-103 102 0
-104 103 0
-105 104 0
-202 105 0
-215 101 173 0
-101 102 174 0
-102 103 175 0
-103 104 176 0
-104 105 177 0
-105 178 202 0
-106 180 227 0
-107 106 182 0
-108 107 184 0
-109 108 186 0
-110 109 188 0
-111 110 190 0
-227 106 0
-106 107 0
-107 108 0
-108 109 0
-109 110 0
-110 111 0
-112 216 0
-113 112 0
-114 113 0
-115 114 0
-116 115 0
-203 116 0
-216 112 180 0
-112 113 182 0
-113 114 184 0
-114 115 186 0
-115 116 188 0
-116 190 203 0
-117 -124 0
-118 -125 0
-119 -126 0
-120 -127 0
-121 -128 0
-122 -129 0
-117 -131 0
-118 -132 0
-119 -133 0
-120 -134 0
-121 -135 0
-122 -136 0
-117 -138 0
-118 -139 0
-119 -140 0
-120 -141 0
-121 -142 0
-122 -143 0
-117 -145 0
-118 -146 0
-119 -147 0
-120 -148 0
-121 -149 0
-122 -150 0
-117 -152 0
-118 -153 0
-119 -154 0
-120 -155 0
-121 -156 0
-122 -157 0
-117 -159 0
-118 -160 0
-119 -161 0
-120 -162 0
-121 -163 0
-122 -164 0
-117 -166 0
-118 -167 0
-119 -168 0
-120 -169 0
-121 -170 0
-122 -171 0
-117 -173 0
-118 -174 0
-119 -175 0
-120 -176 0
-121 -177 0
-122 -178 0
-117 -180 0
-118 -182 0
-119 -184 0
-120 -186 0
-121 -188 0
-122 -190 0
-117 -181 0
-118 -183 0
-119 -185 0
-120 -187 0
-121 -189 0
-122 -191 0
-124 -131 0
-125 -132 0
-126 -133 0
-127 -134 0
-128 -135 0
-129 -136 0
-124 -138 0
-125 -139 0
-126 -140 0
-127 -141 0
-128 -142 0
-129 -143 0
-124 -145 0
-125 -146 0
-126 -147 0
-127 -148 0
-128 -149 0
-129 -150 0
-124 -152 0
-125 -153 0
-126 -154 0
-127 -155 0
-128 -156 0
-129 -157 0
-124 -159 0
-125 -160 0
-126 -161 0
-127 -162 0
-128 -163 0
-129 -164 0
-124 -166 0
-125 -167 0
-126 -168 0
-127 -169 0
-128 -170 0
-129 -171 0
-124 -173 0
-125 -174 0
-126 -175 0
-127 -176 0
-128 -177 0
-129 -178 0
-124 -180 0
-125 -182 0
-126 -184 0
-127 -186 0
-128 -188 0
-129 -190 0
-124 -181 0
-125 -183 0
-126 -185 0
-127 -187 0
-128 -189 0
-129 -191 0
-131 -138 0
-132 -139 0
-133 -140 0
-134 -141 0
-135 -142 0
-136 -143 0
-131 -145 0
-132 -146 0
-133 -147 0
-134 -148 0
-135 -149 0
-136 -150 0
-131 -152 0
-132 -153 0
-133 -154 0
-134 -155 0
-135 -156 0
-136 -157 0
-131 -159 0
-132 -160 0
-133 -161 0
-134 -162 0
-135 -163 0
-136 -164 0
-131 -166 0
-132 -167 0
-133 -168 0
-134 -169 0
-135 -170 0
-136 -171 0
-131 -173 0
-132 -174 0
-133 -175 0
-134 -176 0
-135 -177 0
-136 -178 0
-131 -180 0
-132 -182 0
-133 -184 0
-134 -186 0
-135 -188 0
-136 -190 0
-131 -181 0
-132 -183 0
-133 -185 0
-134 -187 0
-135 -189 0
-136 -191 0
-138 -145 0
-139 -146 0
-140 -147 0
-141 -148 0
-142 -149 0
-143 -150 0
-138 -152 0
-139 -153 0
-140 -154 0
-141 -155 0
-142 -156 0
-143 -157 0
-138 -159 0
-139 -160 0
-140 -161 0
-141 -162 0
-142 -163 0
-143 -164 0
-138 -166 0
-139 -167 0
-140 -168 0
-141 -169 0
-142 -170 0
-143 -171 0
-138 -173 0
-139 -174 0
-140 -175 0
-141 -176 0
-142 -177 0
-143 -178 0
-138 -180 0
-139 -182 0
-140 -184 0
-141 -186 0
-142 -188 0
-143 -190 0
-138 -181 0
-139 -183 0
-140 -185 0
-141 -187 0
-142 -189 0
-143 -191 0
-145 -152 0
-146 -153 0
-147 -154 0
-148 -155 0
-149 -156 0
-150 -157 0
-145 -159 0
-146 -160 0
-147 -161 0
-148 -162 0
-149 -163 0
-150 -164 0
-145 -166 0
-146 -167 0
-147 -168 0
-148 -169 0
-149 -170 0
-150 -171 0
-145 -173 0
-146 -174 0
-147 -175 0
-148 -176 0
-149 -177 0
-150 -178 0
-145 -180 0
-146 -182 0
-147 -184 0
-148 -186 0
-149 -188 0
-150 -190 0
-145 -181 0
-146 -183 0
-147 -185 0
-148 -187 0
-149 -189 0
-150 -191 0
-152 -159 0
-153 -160 0
-154 -161 0
-155 -162 0
-156 -163 0
-157 -164 0
-152 -166 0
-153 -167 0
-154 -168 0
-155 -169 0
-156 -170 0
-157 -171 0
-152 -173 0
-153 -174 0
-154 -175 0
-155 -176 0
-156 -177 0
-157 -178 0
-152 -180 0
-153 -182 0
-154 -184 0
-155 -186 0
-156 -188 0
-157 -190 0
-152 -181 0
-153 -183 0
-154 -185 0
-155 -187 0
-156 -189 0
-157 -191 0
-159 -166 0
-160 -167 0
-161 -168 0
-162 -169 0
-163 -170 0
-164 -171 0
-159 -173 0
-160 -174 0
-161 -175 0
-162 -176 0
-163 -177 0
-164 -178 0
-159 -180 0
-160 -182 0
-161 -184 0
-162 -186 0
-163 -188 0
-164 -190 0
-159 -181 0
-160 -183 0
-161 -185 0
-162 -187 0
-163 -189 0
-164 -191 0
-166 -173 0
-167 -174 0
-168 -175 0
-169 -176 0
-170 -177 0
-171 -178 0
-166 -180 0
-167 -182 0
-168 -184 0
-169 -186 0
-170 -188 0
-171 -190 0
-166 -181 0
-167 -183 0
-168 -185 0
-169 -187 0
-170 -189 0
-171 -191 0
-173 -180 0
-174 -182 0
-175 -184 0
-176 -186 0
-177 -188 0
-178 -190 0
-173 -181 0
-174 -183 0
-175 -185 0
-176 -187 0
-177 -189 0
-178 -191 0
-180 -181 0
-182 -183 0
-184 -185 0
-186 -187 0
-188 -189 0
-190 -191 0
-194 0
-195 0
-196 0
-197 0
-198 0
-199 0
-200 0
-201 0
-202 0
-203 0
